66 66
28 2
34 1
40 4
37 6
10 21
15 17
48 16
8 19
16 10
20 23
23 20
2 12
1 25
55 3
3 16
45 7
24 30
60 18
61 12
66 32
38 27
35 5
21 8
43 29
51 22
62 11
65 2
64 17
39 33
32 6
19 15
14 23
50 1
4 24
31 14
36 5
13 9
30 8
54 29
57 33
33 4
44 22
42 7
47 27
26 15
7 19
56 13
9 26
59 26
25 18
29 9
11 24
27 10
41 3
12 13
52 21
58 20
5 14
49 11
22 31
18 25
6 28
63 30
53 31
17 32
46 28
